DATASET = "thpack3";
INSTANCE = "026";

WIDTH = 233;
HEIGHT = 220;
LENGTH = 587;

NO_OF_SHAPES = 8;
size = [|
  86,71,41 |
  75,58,58 |
  100,81,27 |
  59,42,24 |
  69,37,30 |
  63,50,36 |
  96,72,34 |
  111,71,29 |
|];

verticality = [|
  0,1,1 |
  1,1,1 |
  0,0,1 |
  0,1,1 |
  0,1,1 |
  1,1,1 |
  0,0,1 |
  0,0,1 |
|];

box_count = [
  24,
  23,
  20,
  24,
  15,
  13,
  24,
  18,
];
